# DGP1 instance in AMPL .dat format
# graph.dat
param n := 5 ;
param : E : c I := # testts
  1 2  1.000 1
  2 3  1.000 1   # this denotes the fact that the edge {2,3} has weight 1.000
  3 4  1.000 1
  #1 4  3.000 1
  3 5  1.000 1
  #2 5  2.000 1
;